c ---- [ banner ] ------------------------------------------------------------
c
c Kissat SAT Solver
c 
c Copyright (c) 2021-2024 Armin Biere University of Freiburg
c Copyright (c) 2019-2021 Armin Biere Johannes Kepler University Linz
c 
c Version 4.0.1 43f02cf3e992cb44653b35e5cb26f93281552ae0
c gcc (Ubuntu 13.2.0-23ubuntu4) 13.2.0 -W -Wall -O3 -DNDEBUG
c Thu Sep 12 12:27:46 CEST 2024 Linux abryzen9 6.8.0-41-generic x86_64
c
c ---- [ parsing ] -----------------------------------------------------------
c
c opened and reading DIMACS file:
c
c   /data/artifact/AMulet2.0_artifact/exp4/cnf_dc2_64/64_64_U2_DT_BK_Multgen_dc2.cnf
c
c parsed 'p cnf 34015 152260' header
c closing input after reading 3085937 bytes (3 MB)
c finished parsing after 0.03 seconds
c
c ---- [ options ] -----------------------------------------------------------
c
c --stable=0                       (different from default '1')
c
c ---- [ solving ] -----------------------------------------------------------
c
c  seconds switched rate     size/glue tier1  binary          remaining
c         MB reductions conflicts size  tier2    irredundant
c          level restarts redundant glue  trail          variables
c
c *  0.03 13 0 0 0  0 0   0   0 0.0 0 0 0 0 0% 2547 149711 34012 100%
c (  0.04 15 0 0 0  0 0   0   0 0.0 0 0 0 0 0% 2547 149711 34012 100%
c .  0.05 15 0 0 0  0 0   0   0 0.0 0 0 0 0 0% 2543 149711 34012 100%
c c  0.14 26 0 0 0  0 0   0   0 0.0 0 0 0 0 0% 16016 122775 27276 80%
c d  0.14 26 0 0 0  0 0   0   0 0.0 0 0 0 0 0% 2542 122775 27276 80%
c =  0.20 26 0 0 0  0 0   0   0 0.0 0 0 0 0 0% 3220 122775 26934 79%
c d  0.21 26 0 0 0  0 0   0   0 0.0 0 0 0 0 0% 2536 122775 26934 79%
c f  0.35 25 0 0 0  0 0   0   0 0.0 0 0 0 0 0% 8890 113189 30128 89%
c e  0.61 27 0 0 0  0 0   0   0 0.0 0 0 0 0 0% 1388 123010 20164 59%
c )  0.61 27 0 0 0  0 0   0   0 0.0 0 0 0 0 0% 1388 123010 20164 59%
c {  0.63 27 0 0 0  0 0   0   0 0.0 0 0 2 6 0% 1388 123010 20164 59%
c -  0.78 27 146 0 1 195 34 1000 707 2.1 11 5 3 14 14% 1420 123010 20164 59%
c -  1.02 27 258 0 2 307 40 2000 1503 2.9 15 5 2 10 20% 1424 123010 20164 59%
c c  1.30 27 266 0 2 390 43 2505 1955 3.3 18 5 3 11 22% 2107 120272 19820 58%
c d  1.30 27 266 0 2 390 43 2505 1945 3.3 18 5 3 11 22% 1419 120272 19820 58%
c u  1.33 27 266 0 2 390 43 2505 1673 3.3 18 5 3 11 22% 1424 120272 19820 58%
c v  1.35 27 266 0 2 390 43 2505 1410 3.3 18 5 3 11 22% 1425 120272 19820 58%
c w  1.37 27 266 0 2 390 43 2505 1408 3.3 18 5 3 11 22% 1425 120272 19820 58%
c x  1.39 27 266 0 2 390 43 2505 1408 3.3 18 5 3 11 22% 1425 120252 19820 58%
c =  1.46 27 266 0 2 390 43 2505 1408 3.3 18 5 3 11 22% 1701 120252 19682 58%
c
c  seconds   switched   rate       size/glue tier1     binary          remaining
c         MB  reductions conflicts       size  tier2      irredundant
c           level restarts    redundant    glue    trail          variables
c
c d  1.47 27 266 0 2 390 43 2505 1408 3.3 18 5 3 11 22% 1425 120252 19682 58%
c t  1.48 27 266 0 2 390 43 2505 1408 3.3 18 5 3 11 22% 1415 120252 19682 58%
c f  1.50 27 266 0 2 390 43 2505 1408 3.3 18 5 3 11 22% 1449 120201 19699 58%
c u  1.60 27 266 0 2 390 43 2505 1374 3.3 18 5 3 11 22% 1449 120201 19699 58%
c v  1.61 27 266 0 2 390 43 2505 1324 3.3 18 5 3 11 22% 1449 120201 19699 58%
c w  1.64 27 266 0 2 390 43 2505 1315 3.3 18 5 3 11 22% 1449 120201 19699 58%
c =  1.71 27 266 0 2 390 43 2505 1315 3.3 18 5 3 11 22% 1529 120201 19659 58%
c d  1.71 27 266 0 2 390 43 2505 1315 3.3 18 5 3 11 22% 1448 120201 19659 58%
c t  1.73 27 266 0 2 390 43 2505 1315 3.3 18 5 3 11 22% 1433 120201 19659 58%
c f  1.75 27 266 0 2 390 43 2505 1315 3.3 18 5 3 11 22% 1501 120098 19693 58%
c -  1.89 27 331 0 3 432 42 3415 1924 3.2 17 5 3 10 23% 1518 120098 19693 58%
c -  2.19 27 338 0 4 564 40 5147 3142 3.0 15 5 2 9 24% 1532 120098 19693 58%
c -  2.85 27 338 0 5 877 44 7147 4428 3.4 18 5 2 9 26% 1564 120098 19693 58%
c d  2.96 27 337 0 5 961 45 7712 4900 3.5 18 5 2 9 25% 1554 120098 19678 58%
c u  2.99 27 337 0 5 961 45 7712 4566 3.5 18 5 2 9 25% 1557 120098 19678 58%
c v  3.02 27 337 0 5 961 45 7712 3838 3.5 18 5 2 9 25% 1557 120098 19678 58%
c w  3.07 27 337 0 5 961 45 7712 3825 3.5 18 5 2 9 25% 1557 120098 19678 58%
c x  3.10 27 337 0 5 961 45 7712 3825 3.5 18 5 2 9 25% 1557 119561 19678 58%
c =  3.21 27 337 0 5 961 45 7712 3825 3.5 18 5 2 9 25% 2191 119561 19361 57%
c d  3.22 27 337 0 5 961 45 7712 3802 3.5 18 5 2 9 25% 1538 119561 19361 57%
c
c  seconds   switched   rate       size/glue tier1    binary          remaining
c         MB  reductions conflicts       size  tier2     irredundant
c           level restarts    redundant    glue   trail          variables
c
c t  3.23 27 337 0 5 961 45 7712 3802 3.5 18 5 2 9 25% 1536 119561 19361 57%
c f  3.25 27 337 0 5 961 45 7712 3802 3.5 18 5 2 9 25% 1586 119485 19386 57%
c u  3.32 27 337 0 5 961 45 7712 3714 3.5 18 5 2 9 25% 1587 119485 19386 57%
c v  3.35 27 337 0 5 961 45 7712 3616 3.5 18 5 2 9 25% 1587 119485 19386 57%
c w  3.39 27 337 0 5 961 45 7712 3610 3.5 18 5 2 9 25% 1587 119485 19386 57%
c x  3.43 27 337 0 5 961 45 7712 3610 3.5 18 5 2 9 25% 1588 118821 19386 57%
c =  3.55 27 337 0 5 961 45 7712 3610 3.5 18 5 2 9 25% 1790 118821 19285 57%
c d  3.56 27 337 0 5 961 45 7712 3607 3.5 18 5 2 9 25% 1583 118821 19285 57%
c t  3.57 27 337 0 5 961 45 7712 3607 3.5 18 5 2 9 25% 1563 118821 19285 57%
c f  3.61 27 337 0 5 961 45 7712 3607 3.5 18 5 2 9 25% 1641 118704 19324 57%
c -  3.98 27 317 0 6 1091 43 9384 4515 3.5 19 5 2 8 25% 1696 118704 19324 57%
c o  4.22 27 318 0 6 1183 44 10023 5085 3.5 20 6 2 8 25% 1705 118704 19324 57%
c -  4.77 27 297 0 7 1398 42 11835 5995 3.8 22 6 2 8 25% 1741 118704 19324 57%
c s  5.08 27 309 0 7 1491 43 12521 6612 3.8 23 6 2 8 25% 1753 114610 19324 57%
c e  5.20 27 309 0 7 1491 43 12521 6612 3.8 23 6 2 8 25% 1362 114869 19043 56%
c s  5.20 27 309 0 7 1491 43 12521 6612 3.8 23 6 2 8 25% 1362 114556 19043 56%
c ^  5.21 27 309 0 7 1491 43 12521 6612 3.8 23 6 2 8 25% 1362 114556 19043 56%
c -  5.60 27 315 0 8 1626 42 14480 7224 3.8 22 6 2 8 25% 1439 114556 19043 56%
c d  6.06 27 317 0 8 1807 42 15798 8424 3.8 24 6 2 8 25% 1418 114556 19024 56%
c u  6.10 27 317 0 8 1807 42 15798 7676 3.8 24 6 2 8 25% 1430 114556 19024 56%
c
c  seconds   switched    rate        size/glue tier1    binary          remaining
c         MB  reductions   conflicts       size  tier2     irredundant
c           level  restarts     redundant    glue   trail          variables
c
c v  6.14 27 317 0 8 1807 42 15798 6610 3.8 24 6 2 8 25% 1430 114556 19024 56%
c w  6.22 27 317 0 8 1807 42 15798 6608 3.8 24 6 2 8 25% 1430 114556 19024 56%
c x  6.27 27 317 0 8 1807 42 15798 6608 3.8 24 6 2 8 25% 1436 113844 19024 56%
c =  6.48 27 317 0 8 1807 42 15798 6608 3.8 24 6 2 8 25% 2806 113844 18339 54%
c d  6.49 27 317 0 8 1807 42 15798 6563 3.8 24 6 2 8 25% 1396 113844 18337 54%
c t  6.51 27 317 0 8 1807 42 15798 6563 3.8 24 6 2 8 25% 1357 113844 18337 54%
c f  6.57 27 317 0 8 1807 42 15798 6563 3.8 24 6 2 8 25% 1373 113810 18346 54%
c u  6.62 27 317 0 8 1807 42 15798 6396 3.8 24 6 2 8 25% 1374 113810 18346 54%
c v  6.66 27 317 0 8 1807 42 15798 6230 3.8 24 6 2 8 25% 1374 113810 18346 54%
c w  6.77 27 317 0 8 1807 42 15798 6206 3.8 24 6 2 8 25% 1374 113810 18346 54%
c x  6.81 27 317 0 8 1807 42 15798 6206 3.8 24 6 2 8 25% 1375 112415 18346 54%
c =  7.04 27 317 0 8 1807 42 15798 6206 3.8 24 6 2 8 25% 4601 112415 16733 49%
c d  7.05 27 317 0 8 1807 42 15798 6127 3.8 24 6 2 8 25% 1277 112415 16733 49%
c t  7.06 27 317 0 8 1807 42 15798 6127 3.8 24 6 2 8 25% 1273 112415 16733 49%
c -  7.34 27 315 0 9 1890 41 17309 6771 3.7 23 6 2 8 25% 1286 112415 16733 49%
c o  8.08 27 301 0 9 2153 40 20254 9272 3.6 23 6 2 8 25% 1330 112415 16733 49%
c -  8.09 27 301 0 10 2168 40 20309 8555 3.7 23 6 2 7 25% 1330 112415 16733 49%
c -  8.55 27 288 0 11 2374 39 23471 10129 3.7 23 6 2 7 24% 1445 112415 16733 49%
c s  8.73 27 291 0 11 2454 38 25030 11519 3.6 22 6 2 7 24% 1457 99264 16733 49%
c e  8.80 27 291 0 11 2454 38 25030 11519 3.6 22 6 2 7 24% 1081 99617 16462 48%
c
c  seconds   switched     rate         size/glue tier1    binary         remaining
c         MB   reductions   conflicts        size  tier2     irredundant
c           level   restarts      redundant    glue   trail         variables
c
c s  8.80 27 291 0 11 2454 38 25030 11519 3.6 22 6 2 7 24% 1103 99184 16462 48%
c ^  8.81 27 291 0 11 2454 38 25030 11519 3.6 22 6 2 7 24% 1103 99184 16462 48%
c -  9.08 27 285 0 12 2660 37 26787 11379 3.6 22 6 2 7 25% 1114 99184 16462 48%
c c  9.15 27 284 0 12 2679 37 26933 11504 3.6 22 6 2 7 25% 1187 98832 16418 48%
c d  9.16 27 284 0 12 2679 37 26933 11467 3.6 22 6 2 7 25% 1094 98832 16415 48%
c u  9.19 27 284 0 12 2679 37 26933 10323 3.6 22 6 2 7 25% 1100 98832 16415 48%
c v  9.23 27 284 0 12 2679 37 26933 9199 3.6 22 6 2 7 25% 1102 98832 16415 48%
c w  9.23 27 284 0 12 2679 37 26933 9189 3.6 22 6 2 7 25% 1102 98832 16415 48%
c x  9.25 27 284 0 12 2679 37 26933 9189 3.6 22 6 2 7 25% 1102 98755 16415 48%
c =  9.42 27 284 0 12 2679 37 26933 9189 3.6 22 6 2 7 25% 3466 98755 15233 45%
c d  9.42 27 284 0 12 2679 37 26933 9035 3.6 22 6 2 7 25% 1028 98755 15233 45%
c t  9.43 27 284 0 12 2679 37 26933 9035 3.6 22 6 2 7 25% 1014 98755 15233 45%
c f  9.47 27 284 0 12 2679 37 26933 9035 3.6 22 6 2 7 25% 1044 98678 15248 45%
c u  9.50 27 284 0 12 2679 37 26933 8679 3.6 22 6 2 7 25% 1047 98678 15248 45%
c v  9.52 27 284 0 12 2679 37 26933 8481 3.6 22 6 2 7 25% 1047 98678 15248 45%
c w  9.53 27 284 0 12 2679 37 26933 8479 3.6 22 6 2 7 25% 1047 98678 15248 45%
c =  9.67 27 284 0 12 2679 37 26933 8479 3.6 22 6 2 7 25% 1755 98678 14894 44%
c d  9.67 27 284 0 12 2679 37 26933 8473 3.6 22 6 2 7 25% 1042 98678 14893 44%
c f  9.70 27 284 0 12 2679 37 26933 8473 3.6 22 6 2 7 25% 1056 98643 14900 44%
c - 10.15 27 282 0 13 3006 37 30251 10560 3.5 22 6 2 7 25% 1075 98643 14900 44%
c
c  seconds   switched     rate         size/glue tier1    binary         remaining
c         MB   reductions   conflicts        size  tier2     irredundant
c           level   restarts      redundant    glue   trail         variables
c
c - 10.64 27 288 0 14 3326 36 33858 12605 3.5 22 6 2 6 25% 1093 98643 14900 44%
c - 11.08 27 283 0 15 3617 35 37599 14301 3.5 22 6 2 6 25% 1131 98643 14900 44%
c o 11.48 27 276 0 15 3851 34 40254 16645 3.5 23 6 2 6 25% 1167 98643 14900 44%
c c 11.65 27 274 0 15 3939 34 41260 17548 3.5 23 6 2 6 25% 1217 98387 14858 44%
c d 11.65 27 274 0 15 3939 34 41260 17463 3.5 23 6 2 6 25% 1128 98387 14855 44%
c u 11.70 27 274 0 15 3939 34 41260 15471 3.5 23 6 2 6 25% 1141 98387 14855 44%
c v 11.74 27 274 0 15 3939 34 41260 14535 3.5 23 6 2 6 25% 1141 98387 14855 44%
c w 11.78 27 274 0 15 3939 34 41260 14535 3.5 23 6 2 6 25% 1141 98387 14855 44%
c x 11.80 27 274 0 15 3939 34 41260 14535 3.5 23 6 2 6 25% 1141 98356 14855 44%
c = 11.97 27 274 0 15 3939 34 41260 14535 3.5 23 6 2 6 25% 1143 98356 14854 44%
c d 11.97 27 274 0 15 3939 34 41260 14519 3.5 23 6 2 6 25% 1126 98356 14847 44%
c t 11.98 27 274 0 15 3939 34 41260 14519 3.5 23 6 2 6 25% 1119 98356 14847 44%
c f 11.99 27 274 0 15 3939 34 41260 14519 3.5 23 6 2 6 25% 1127 98328 14851 44%
c c 12.04 27 274 0 15 3939 34 41260 14475 3.5 23 6 2 6 25% 1152 98224 14838 44%
c d 12.05 27 274 0 15 3939 34 41260 14475 3.5 23 6 2 6 25% 1126 98224 14838 44%
c u 12.08 27 274 0 15 3939 34 41260 14116 3.5 23 6 2 6 25% 1136 98224 14838 44%
c v 12.12 27 274 0 15 3939 34 41260 13241 3.5 23 6 2 6 25% 1137 98224 14838 44%
c w 12.23 27 274 0 15 3939 34 41260 13222 3.5 23 6 2 6 25% 1137 98224 14838 44%
c d 12.23 27 274 0 15 3939 34 41260 13214 3.5 23 6 2 6 25% 1127 98224 14833 44%
c t 12.24 27 274 0 15 3939 34 41260 13214 3.5 23 6 2 6 25% 1123 98224 14833 44%
c
c  seconds   switched     rate         size/glue tier1    binary         remaining
c         MB   reductions   conflicts        size  tier2     irredundant
c           level   restarts      redundant    glue   trail         variables
c
c - 12.28 27 274 0 16 3946 34 41472 12218 3.5 22 6 2 6 25% 1124 98224 14833 44%
c - 13.02 27 267 0 17 4343 33 45472 14423 3.5 23 6 2 6 25% 1176 98224 14833 44%
c - 13.67 27 258 0 18 4639 32 49597 16340 3.5 22 6 2 6 25% 1262 98224 14833 44%
c s 14.20 27 257 0 18 4880 32 52133 18473 3.4 22 6 2 6 25% 1320 88201 14833 44%
c e 14.29 27 257 0 18 4880 32 52133 18473 3.4 22 6 2 6 25% 1083 88471 14656 43%
c s 14.29 27 257 0 18 4880 32 52133 18473 3.4 22 6 2 6 25% 1089 88148 14656 43%
c ^ 14.30 27 257 0 18 4880 32 52133 18473 3.4 22 6 2 6 25% 1089 88148 14656 43%
c - 14.69 27 254 0 19 5046 31 53839 17277 3.4 22 7 2 5 25% 1104 88148 14656 43%
c - 15.45 27 245 0 20 5517 31 58197 18970 3.4 23 7 2 5 25% 1210 88148 14656 43%
c d 15.51 27 243 0 20 5545 31 58886 19368 3.4 22 7 2 5 25% 1129 88148 14605 43%
c u 15.56 27 243 0 20 5545 31 58886 16763 3.4 22 7 2 5 25% 1177 88148 14605 43%
c v 15.60 27 243 0 20 5545 31 58886 15314 3.4 22 7 2 5 25% 1185 88148 14605 43%
c w 15.64 27 243 0 20 5545 31 58886 15138 3.4 22 7 2 5 25% 1186 88148 14605 43%
c = 15.86 27 243 0 20 5545 31 58886 15138 3.4 22 7 2 5 25% 1368 88148 14514 43%
c d 15.87 27 243 0 20 5545 31 58886 14954 3.4 22 7 2 5 25% 1122 88148 14505 43%
c t 15.87 27 243 0 20 5545 31 58886 14954 3.4 22 7 2 5 25% 1112 88148 14505 43%
c f 15.89 27 243 0 20 5545 31 58886 14954 3.4 22 7 2 5 25% 1134 88050 14517 43%
c c 15.94 27 243 0 20 5545 31 58886 14840 3.4 22 7 2 5 25% 1229 87541 14456 43%
c d 15.94 27 243 0 20 5545 31 58886 14840 3.4 22 7 2 5 25% 1107 87541 14456 43%
c u 15.98 27 243 0 20 5545 31 58886 14285 3.4 22 7 2 5 25% 1121 87541 14456 43%
c
c  seconds   switched     rate         size/glue tier1    binary         remaining
c         MB   reductions   conflicts        size  tier2     irredundant
c           level   restarts      redundant    glue   trail         variables
c
c v 16.01 27 243 0 20 5545 31 58886 14025 3.4 22 7 2 5 25% 1122 87541 14456 43%
c w 16.03 27 243 0 20 5545 31 58886 13977 3.4 22 7 2 5 25% 1122 87541 14456 43%
c x 16.09 27 243 0 20 5545 31 58886 13977 3.4 22 7 2 5 25% 1122 87081 14456 43%
c = 16.38 27 243 0 20 5545 31 58886 13977 3.4 22 7 2 5 25% 1392 87081 14321 42%
c d 16.39 27 243 0 20 5545 31 58886 13838 3.4 22 7 2 5 25% 1074 87081 14318 42%
c t 16.40 27 243 0 20 5545 31 58886 13838 3.4 22 7 2 5 25% 1061 87081 14318 42%
c - 17.01 27 239 0 21 5975 31 62671 15730 3.4 23 7 2 5 25% 1111 87081 14318 42%
c - 17.77 27 232 0 22 6497 30 67254 18183 3.3 23 7 2 5 26% 1147 87081 14318 42%
c o 18.47 27 232 0 22 6984 30 70254 20884 3.4 25 7 2 5 26% 1174 87081 14318 42%
c - 18.60 27 229 0 23 7066 30 71944 20152 3.4 24 7 2 5 26% 1203 87081 14318 42%
c - 18.97 27 231 0 24 7292 29 76739 19132 3.3 24 7 1 5 25% 1287 87081 14318 42%
c c 19.43 27 229 0 24 7576 28 79948 21977 3.3 24 7 1 5 25% 1395 86293 14193 42%
c d 19.43 27 229 0 24 7576 28 79948 21579 3.3 24 7 1 5 25% 1145 86293 14193 42%
c u 19.47 27 229 0 24 7576 28 79948 19960 3.3 24 7 1 5 25% 1156 86293 14193 42%
c v 19.54 27 229 0 24 7576 28 79948 17372 3.3 24 7 1 5 25% 1165 86293 14193 42%
c w 19.70 27 229 0 24 7576 28 79948 17259 3.3 24 7 1 5 25% 1166 86293 14193 42%
c = 19.77 27 229 0 24 7576 28 79948 17259 3.3 24 7 1 5 25% 1360 86293 14096 41%
c d 19.78 27 229 0 24 7576 28 79948 17177 3.3 24 7 1 5 25% 1142 86293 14089 41%
c t 19.78 27 229 0 24 7576 28 79948 17177 3.3 24 7 1 5 25% 1128 86293 14089 41%
c c 19.84 27 229 0 24 7576 28 79948 17177 3.3 24 7 1 5 25% 1131 86277 14087 41%
c
c  seconds   switched     rate         size/glue tier1    binary         remaining
c         MB   reductions   conflicts        size  tier2     irredundant
c           level   restarts      redundant    glue   trail         variables
c
c d 19.85 27 229 0 24 7576 28 79948 17176 3.3 24 7 1 5 25% 1127 86277 14087 41%
c u 19.88 27 229 0 24 7576 28 79948 16814 3.3 24 7 1 5 25% 1129 86277 14087 41%
c v 19.92 27 229 0 24 7576 28 79948 16171 3.3 24 7 1 5 25% 1131 86277 14087 41%
c w 20.03 27 229 0 24 7576 28 79948 15875 3.3 24 7 1 5 25% 1132 86277 14087 41%
c x 20.07 27 229 0 24 7576 28 79948 15875 3.3 24 7 1 5 25% 1132 86223 14087 41%
c = 20.37 27 229 0 24 7576 28 79948 15875 3.3 24 7 1 5 25% 1984 86223 13661 40%
c d 20.37 27 229 0 24 7576 28 79948 15439 3.3 24 7 1 5 25% 1068 86223 13661 40%
c t 20.38 27 229 0 24 7576 28 79948 15439 3.3 24 7 1 5 25% 1053 86223 13661 40%
c - 20.70 27 228 0 25 7786 28 81638 14323 3.3 24 7 1 5 25% 1054 86223 13661 40%
c - 21.25 27 224 0 26 8146 28 86642 16308 3.3 24 7 1 5 25% 1086 86223 13661 40%
c - 21.98 27 219 0 27 8639 28 91741 18126 3.3 24 7 1 5 26% 1120 86223 13661 40%
c s 22.45 27 215 0 27 8979 27 95802 21766 3.2 24 7 1 5 26% 1156 81545 13661 40%
c e 22.53 27 215 0 27 8979 27 95802 21766 3.2 24 7 1 5 26% 600 82746 13359 39%
c s 22.53 27 215 0 27 8979 27 95802 21766 3.2 24 7 1 5 26% 602 82327 13359 39%
c e 22.54 27 215 0 27 8979 27 95802 21766 3.2 24 7 1 5 26% 602 82373 13336 39%
c ^ 22.54 27 215 0 27 8979 27 95802 21766 3.2 24 7 1 5 26% 602 82373 13336 39%
c - 22.62 27 213 0 28 9007 27 96938 18104 3.2 24 7 1 5 25% 606 82368 13336 39%
c - 23.31 27 213 0 29 9387 26 102229 19424 3.2 23 7 1 5 25% 648 82361 13336 39%
c d 23.91 27 211 0 29 9652 26 104564 21507 3.2 24 7 1 5 25% 633 82361 13319 39%
c u 23.98 27 211 0 29 9652 26 104564 19761 3.2 24 7 1 5 25% 654 82361 13319 39%
c
c  seconds   switched     rate          size/glue tier1   binary         remaining
c         MB   reductions   conflicts         size  tier2    irredundant
c           level   restarts       redundant    glue   trail        variables
c
c v 24.09 27 211 0 29 9652 26 104564 17188 3.2 24 7 1 5 25% 667 82361 13319 39%
c w 24.34 27 211 0 29 9652 26 104564 16954 3.2 24 7 1 5 25% 667 82361 13319 39%
c = 24.73 27 211 0 29 9652 26 104564 16954 3.2 24 7 1 5 25% 785 82353 13260 39%
c d 24.74 27 211 0 29 9652 26 104564 16846 3.2 24 7 1 5 25% 630 82353 13249 39%
c t 24.75 27 211 0 29 9652 26 104564 16846 3.2 24 7 1 5 25% 617 82353 13249 39%
c f 24.79 27 211 0 29 9652 26 104564 16846 3.2 24 7 1 5 25% 619 82341 13250 39%
c c 24.85 27 211 0 29 9652 26 104564 16747 3.2 24 7 1 5 25% 648 82182 13230 39%
c d 24.86 27 211 0 29 9652 26 104564 16747 3.2 24 7 1 5 25% 610 82182 13230 39%
c u 24.91 27 211 0 29 9652 26 104564 16238 3.2 24 7 1 5 25% 612 82182 13230 39%
c v 24.98 27 211 0 29 9652 26 104564 15570 3.2 24 7 1 5 25% 617 82182 13230 39%
c w 25.21 27 211 0 29 9652 26 104564 15312 3.2 24 7 1 5 25% 617 82182 13230 39%
c = 25.57 27 211 0 29 9652 26 104564 15312 3.2 24 7 1 5 25% 647 82182 13215 39%
c d 25.57 27 211 0 29 9652 26 104564 15289 3.2 24 7 1 5 25% 617 82182 13215 39%
c - 26.00 27 209 0 30 9979 26 107614 15755 3.2 24 7 1 5 25% 639 82182 13215 39%
c o 26.46 27 208 0 30 10237 26 110254 18161 3.2 24 7 1 5 26% 650 82182 13215 39%
c - 26.84 27 206 0 31 10477 26 113092 18114 3.2 24 8 1 5 26% 674 82181 13215 39%
c - 27.44 27 201 0 32 10882 25 118659 20050 3.2 24 8 1 5 26% 727 82181 13215 39%
c - 28.18 27 197 0 33 11408 25 124315 21612 3.2 25 8 1 5 26% 759 82181 13215 39%
c - 28.86 27 191 0 34 11819 25 130061 23005 3.2 25 8 1 5 26% 799 82181 13215 39%
c c 29.26 27 190 0 34 12118 25 132824 25533 3.2 25 8 1 5 27% 872 81583 13124 39%
c
c  seconds   switched      rate          size/glue tier1   binary         remaining
c         MB   reductions    conflicts         size  tier2    irredundant
c           level   restarts        redundant    glue   trail        variables
c
c d 29.26 27 190 0 34 12118 25 132824 25265 3.2 25 8 1 5 27% 691 81583 13124 39%
c u 29.31 27 190 0 34 12118 25 132824 23186 3.2 25 8 1 5 27% 720 81583 13124 39%
c v 29.38 27 190 0 34 12118 25 132824 19793 3.2 25 8 1 5 27% 728 81583 13124 39%
c w 29.46 27 190 0 34 12118 25 132824 19782 3.2 25 8 1 5 27% 728 81583 13124 39%
c x 29.54 27 190 0 34 12118 25 132824 19777 3.2 25 8 1 5 27% 737 80165 13124 39%
c d 29.86 27 190 0 34 12118 25 132824 19765 3.2 25 8 1 5 27% 711 80165 13111 39%
c t 29.87 27 190 0 34 12118 25 132824 19765 3.2 25 8 1 5 27% 694 80165 13111 39%
c c 29.91 27 190 0 34 12118 25 132824 19755 3.2 25 8 1 5 27% 704 80141 13108 39%
c d 29.91 27 190 0 34 12118 25 132824 19754 3.2 25 8 1 5 27% 698 80141 13108 39%
c u 29.95 27 190 0 34 12118 25 132824 19233 3.2 25 8 1 5 27% 702 80141 13108 39%
c v 30.00 27 190 0 34 12118 25 132824 18586 3.2 25 8 1 5 27% 703 80141 13108 39%
c w 30.18 27 190 0 34 12118 25 132824 18180 3.2 25 8 1 5 27% 703 80141 13108 39%
c d 30.19 27 190 0 34 12118 25 132824 18178 3.2 25 8 1 5 27% 701 80141 13107 39%
c t 30.19 27 190 0 34 12118 25 132824 18178 3.2 25 8 1 5 27% 697 80141 13107 39%
c - 30.55 27 188 0 35 12358 25 135891 18305 3.2 25 8 1 5 27% 728 80141 13107 39%
c - 31.23 27 184 0 36 12922 24 141809 20644 3.2 26 8 1 5 27% 750 80141 13107 39%
c - 31.82 27 179 0 37 13372 24 147809 22490 3.2 26 8 1 5 27% 777 80140 13107 39%
c - 32.32 27 174 0 38 13755 23 153891 23566 3.1 25 8 1 5 27% 817 80140 13107 39%
c s 32.65 27 171 0 38 13960 22 157901 27147 3.1 25 8 1 5 27% 837 80038 13107 39%
c e 32.74 27 171 0 38 13960 22 157901 27147 3.1 25 8 1 5 27% 654 90787 11656 34%
c
c  seconds   switched      rate          size/glue tier1   binary         remaining
c         MB   reductions    conflicts         size  tier2    irredundant
c           level   restarts        redundant    glue   trail        variables
c
c s 32.76 27 171 0 38 13960 22 157901 27147 3.1 25 8 1 5 27% 654 88470 11656 34%
c e 32.78 27 171 0 38 13960 22 157901 27147 3.1 25 8 1 5 27% 638 88577 11609 34%
c ^ 32.78 27 171 0 38 13960 22 157901 27147 3.1 25 8 1 5 27% 638 88577 11609 34%
c - 32.98 27 169 0 39 14083 22 160055 18379 3.1 25 8 1 5 27% 656 88573 11609 34%
c o 33.03 27 169 0 39 14118 22 160256 18572 3.1 25 8 1 5 27% 656 88573 11609 34%
c d 33.50 27 166 0 39 14506 22 164824 22859 3.1 25 8 1 5 27% 651 88567 11603 34%
c u 33.53 27 166 0 39 14506 22 164824 20889 3.1 25 8 1 5 27% 667 88567 11603 34%
c v 33.59 27 166 0 39 14506 22 164824 18228 3.1 25 8 1 5 27% 676 88567 11603 34%
c w 33.69 27 166 0 39 14506 22 164824 18208 3.1 25 8 1 5 27% 676 88567 11603 34%
c x 33.75 27 166 0 39 14506 22 164824 18194 3.1 25 8 1 5 27% 719 88356 11603 34%
c d 34.10 27 166 0 39 14506 22 164824 18181 3.1 25 8 1 5 27% 705 88338 11596 34%
c t 34.11 27 166 0 39 14506 22 164824 18181 3.1 25 8 1 5 27% 633 88338 11596 34%
c c 34.20 27 166 0 39 14506 22 164824 18138 3.1 25 8 1 5 27% 659 88210 11580 34%
c d 34.21 27 166 0 39 14506 22 164824 18138 3.1 25 8 1 5 27% 627 88210 11580 34%
c u 34.23 27 166 0 39 14506 22 164824 17786 3.1 25 8 1 5 27% 630 88210 11580 34%
c v 34.27 27 166 0 39 14506 22 164824 17186 3.1 25 8 1 5 27% 632 88210 11580 34%
c w 34.37 27 166 0 39 14506 22 164824 16885 3.1 25 8 1 5 27% 632 88210 11580 34%
c x 34.43 27 166 0 39 14506 22 164824 16885 3.1 25 8 1 5 27% 636 88193 11580 34%
c d 34.43 27 166 0 39 14506 22 164824 16883 3.1 25 8 1 5 27% 632 88193 11578 34%
c t 34.44 27 166 0 39 14506 22 164824 16883 3.1 25 8 1 5 27% 627 88193 11578 34%
c
c  seconds   switched      rate          size/glue tier1   binary         remaining
c         MB   reductions    conflicts         size  tier2    irredundant
c           level   restarts        redundant    glue   trail        variables
c
c - 34.54 27 165 0 40 14559 22 166299 15521 3.0 25 8 1 5 27% 627 88193 11578 34%
c - 35.03 27 161 0 41 14909 21 172623 18204 3.0 24 8 1 5 27% 655 88193 11578 34%
c - 35.46 27 156 0 42 15227 20 179027 20193 2.9 24 8 1 5 26% 680 88192 11578 34%
c - 35.84 27 152 0 43 15467 19 185508 21528 2.9 23 8 1 5 26% 720 88192 11578 34%
c - 36.30 27 146 0 44 15803 19 192065 22736 2.8 23 8 1 5 25% 730 88192 11578 34%
c - 36.66 27 142 0 45 16074 18 198704 23454 2.8 22 8 1 5 25% 783 88189 11578 34%
c c 36.80 27 140 0 45 16159 18 200618 25172 2.8 22 8 1 5 25% 823 87801 11519 34%
c d 36.80 27 140 0 45 16159 18 200618 24979 2.8 22 8 1 5 25% 705 87801 11519 34%
c u 36.84 27 140 0 45 16159 18 200618 23270 2.8 22 8 1 5 25% 725 87801 11519 34%
c v 36.91 27 140 0 45 16159 18 200618 19997 2.8 22 8 1 5 25% 731 87801 11519 34%
c w 36.96 27 140 0 45 16159 18 200618 19612 2.8 22 8 1 5 25% 731 87801 11519 34%
c d 36.96 27 140 0 45 16159 18 200618 19612 2.8 22 8 1 5 25% 727 87801 11517 34%
c t 36.97 27 140 0 45 16159 18 200618 19612 2.8 22 8 1 5 25% 719 87801 11517 34%
c c 37.00 27 140 0 45 16159 18 200618 19612 2.8 22 8 1 5 25% 721 87793 11516 34%
c d 37.01 27 140 0 45 16159 18 200618 19612 2.8 22 8 1 5 25% 719 87793 11516 34%
c u 37.04 27 140 0 45 16159 18 200618 19271 2.8 22 8 1 5 25% 720 87793 11516 34%
c v 37.09 27 140 0 45 16159 18 200618 18529 2.8 22 8 1 5 25% 720 87793 11516 34%
c w 37.12 27 140 0 45 16159 18 200618 18406 2.8 22 8 1 5 25% 720 87793 11516 34%
c x 37.16 27 140 0 45 16159 18 200618 18402 2.8 22 8 1 5 25% 722 87782 11516 34%
c t 37.42 27 140 0 45 16159 18 200618 18402 2.8 22 8 1 5 25% 720 87782 11516 34%
c
c  seconds   switched      rate          size/glue tier1   binary         remaining
c         MB   reductions    conflicts         size  tier2    irredundant
c           level   restarts        redundant    glue   trail        variables
c
c - 37.64 27 137 0 46 16323 17 205412 18731 2.7 22 8 1 5 25% 753 87781 11516 34%
c i 37.80 27 132 0 46 16452 16 211713 24179 2.7 21 8 1 5 24% 793 87778 11515 34%
c - 37.80 27 131 0 47 16452 16 212195 20619 2.7 21 8 1 5 24% 793 87778 11515 34%
c i 37.81 27 130 0 47 16452 16 212826 21088 2.7 21 8 1 5 23% 802 87778 11514 34%
c i 37.81 27 130 0 47 16456 16 213110 21257 2.7 21 8 1 5 23% 816 87778 11513 34%
c i 37.81 27 130 0 47 16456 16 213202 21311 2.7 21 8 1 5 23% 821 87778 11505 34%
c i 37.81 27 130 0 47 16456 16 213210 21311 2.7 21 8 1 5 23% 824 87778 11504 34%
c i 37.81 27 130 0 47 16456 16 213216 21309 2.7 21 8 1 5 23% 826 87778 11498 34%
c } 37.81 27 130 0 47 16456 16 213218 21309 2.7 21 8 1 5 23% 826 87778 11495 34%
c 0 37.81 27 130 0 47 16456 16 213218 21309 2.7 21 8 1 5 23% 826 87778 11495 34%
c
c ---- [ result ] ------------------------------------------------------------
c
s UNSATISFIABLE
c
c ---- [ profiling ] ---------------------------------------------------------
c
c          26.84   70.97 %  search
c          26.84   70.97 %  focused
c          10.34   27.35 %  simplify
c          10.01   26.46 %  probe
c           4.06   10.73 %  vivify
c           3.89   10.28 %  sweep
c           0.71    1.88 %  congruence
c           0.70    1.85 %  factor
c           0.64    1.70 %  eliminate
c           0.57    1.50 %  preprocess
c           0.52    1.36 %  substitute
c           0.25    0.67 %  fastel
c           0.21    0.56 %  reduce
c           0.10    0.27 %  subsume
c           0.08    0.22 %  transitive
c           0.05    0.14 %  backbone
c           0.04    0.10 %  lucky
c           0.03    0.07 %  parse
c =============================================
c          37.81  100.00 %  total
c
c ---- [ statistics ] --------------------------------------------------------
c
c chronological:                         7287                3 %  conflicts
c conflicts:                           213218             5638.97 per second
c congruent:                             7556               22 %  variables
c decisions:                          4244320               19.91 per conflict
c eliminated:                           12516               37 %  variables
c factored:                              3357               10 %  variables
c fast_eliminated:                       9964               80 %  eliminated
c fast_strengthened:                       20                1 %  per strengthened
c fast_subsumed:                          134                0 %  per subsumed
c iterations:                               7                0 %  variables
c propagations:                     160586084          4247018    per second
c reductions:                              47             4537    interval
c reordered:                                6            35536    interval
c restarts:                             16456               13    interval
c strengthened:                          3319                0 %  checks
c substituted:                          13336               39 %  variables
c subsumed:                             35950                1 %  checks
c switched:                                 0                0    interval
c vivified:                             71494               13 %  checks
c
c ---- [ glue usage ] --------------------------------------------------------
c
c focused glue 1 used 359598 clauses 58.00% accumulated 58.00% tier1
c focused glue 2 used 123019 clauses 19.84% accumulated 77.84%
c focused glue 3 used  42253 clauses  6.81% accumulated 84.65%
c focused glue 4 used  22992 clauses  3.71% accumulated 88.36%
c focused glue 5 used  15753 clauses  2.54% accumulated 90.90% tier2
c
c ---- [ resources ] ---------------------------------------------------------
c
c maximum-resident-set-size:         28631040 bytes         27 MB
c process-time:                            38s              37.81 seconds
c
c ---- [ shutting down ] -----------------------------------------------------
c
c exit 20
